* Generated by MPModelProtoExporter
*   Name             : 
*   Format           : Free
*   Constraints      : 48
*   Variables        : 21
*     Binary         : 0
*     Integer        : 0
*     Continuous     : 21
NAME          
ROWS
 N  COST
 E  dynamic_cst_area_1_ScenarioIndex(scenario=0)
 E  dynamic_cst_area_2_ScenarioIndex(scenario=0)
 G  c_cost_lb_0_ScenarioIndex(scenario=0)
 G  c_cost_lb_1_ScenarioIndex(scenario=0)
 G  c_cost_lb_2_ScenarioIndex(scenario=0)
 G  c_cost_lb_3_ScenarioIndex(scenario=0)
 G  c_cost_lb_4_ScenarioIndex(scenario=0)
 G  c_cost_lb_5_ScenarioIndex(scenario=0)
 G  c_cost_lb_6_ScenarioIndex(scenario=0)
 G  c_cost_lb_7_ScenarioIndex(scenario=0)
 G  c_cost_lb_8_ScenarioIndex(scenario=0)
 G  c_cost_lb_9_ScenarioIndex(scenario=0)
 G  c_cost_lb_10_ScenarioIndex(scenario=0)
 G  c_cost_lb_11_ScenarioIndex(scenario=0)
 G  c_cost_lb_12_ScenarioIndex(scenario=0)
 G  c_cost_lb_13_ScenarioIndex(scenario=0)
 G  c_cost_lb_14_ScenarioIndex(scenario=0)
 G  c_cost_lb_15_ScenarioIndex(scenario=0)
 G  c_cost_lb_16_ScenarioIndex(scenario=0)
 G  c_cost_lb_17_ScenarioIndex(scenario=0)
 G  c_cost_lb_18_ScenarioIndex(scenario=0)
 G  c_cost_lb_19_ScenarioIndex(scenario=0)
 G  c_cost_lb_20_ScenarioIndex(scenario=0)
 G  c_cost_lb_21_ScenarioIndex(scenario=0)
 G  c_cost_lb_22_ScenarioIndex(scenario=0)
 G  c_cost_lb_23_ScenarioIndex(scenario=0)
 G  c_cost_lb_24_ScenarioIndex(scenario=0)
 G  c_cost_lb_25_ScenarioIndex(scenario=0)
 G  control_cost_total
 G  low_curve_cst_area_1_ScenarioIndex(scenario=0)
 G  low_curve_cst_area_2_ScenarioIndex(scenario=0)
 G  sup_curve_cst_area_1_ScenarioIndex(scenario=0)
 G  sup_curve_cst_area_2_ScenarioIndex(scenario=0)
 G  late_low_curve_cst_area_1_ScenarioIndex(scenario=0)
 G  late_low_curve_cst_area_2_ScenarioIndex(scenario=0)
 G  late_sup_curve_cst_area_1_ScenarioIndex(scenario=0)
 G  late_sup_curve_cst_area_2_ScenarioIndex(scenario=0)
 G  overflow_cst_area_1_ScenarioIndex(scenario=0)
 G  overflow_cst_area_2_ScenarioIndex(scenario=0)
 G  total_penalty_cost_constraint
 G  f_cost_lb_0_ScenarioIndex(scenario=0)
 G  future_cost_total
 E  init_lvl_cst_area_1
 E  init_lvl_cst_area_2
 G  f_cost_lb_0_ScenarioIndex(scenario=0)_1
 G  future_cost_total_2
 E  init_lvl_cst_area_1_3
 E  init_lvl_cst_area_2_4
COLUMNS
    control_area_1_ScenarioIndex(scenario=0)             dynamic_cst_area_1_ScenarioIndex(scenario=0)                  1  c_cost_lb_0_ScenarioIndex(scenario=0)                         1
    control_area_1_ScenarioIndex(scenario=0)             c_cost_lb_1_ScenarioIndex(scenario=0)                         1  c_cost_lb_2_ScenarioIndex(scenario=0)                      0.05
    control_area_1_ScenarioIndex(scenario=0)             c_cost_lb_3_ScenarioIndex(scenario=0)                  0.013885  c_cost_lb_5_ScenarioIndex(scenario=0)                         1
    control_area_1_ScenarioIndex(scenario=0)             c_cost_lb_6_ScenarioIndex(scenario=0)                  0.016168  c_cost_lb_7_ScenarioIndex(scenario=0)                  0.011916
    control_area_1_ScenarioIndex(scenario=0)             c_cost_lb_8_ScenarioIndex(scenario=0)                  0.011517  c_cost_lb_9_ScenarioIndex(scenario=0)                  0.011517
    control_area_1_ScenarioIndex(scenario=0)             c_cost_lb_12_ScenarioIndex(scenario=0)                 0.011517  c_cost_lb_13_ScenarioIndex(scenario=0)                 0.016168
    control_area_1_ScenarioIndex(scenario=0)             c_cost_lb_14_ScenarioIndex(scenario=0)                        1  c_cost_lb_16_ScenarioIndex(scenario=0)                 0.011517
    control_area_1_ScenarioIndex(scenario=0)             c_cost_lb_17_ScenarioIndex(scenario=0)                 0.011517
    control_area_2_ScenarioIndex(scenario=0)             dynamic_cst_area_2_ScenarioIndex(scenario=0)                  1  c_cost_lb_0_ScenarioIndex(scenario=0)                   1.33333
    control_area_2_ScenarioIndex(scenario=0)             c_cost_lb_1_ScenarioIndex(scenario=0)                   1.33333  c_cost_lb_2_ScenarioIndex(scenario=0)                  0.066667
    control_area_2_ScenarioIndex(scenario=0)             c_cost_lb_3_ScenarioIndex(scenario=0)                  0.022166  c_cost_lb_4_ScenarioIndex(scenario=0)                  0.022166
    control_area_2_ScenarioIndex(scenario=0)             c_cost_lb_5_ScenarioIndex(scenario=0)                   1.33333  c_cost_lb_6_ScenarioIndex(scenario=0)                  0.021558
    control_area_2_ScenarioIndex(scenario=0)             c_cost_lb_7_ScenarioIndex(scenario=0)                  0.011916  c_cost_lb_8_ScenarioIndex(scenario=0)                  0.011517
    control_area_2_ScenarioIndex(scenario=0)             c_cost_lb_12_ScenarioIndex(scenario=0)                 0.011517  c_cost_lb_13_ScenarioIndex(scenario=0)                 0.021558
    control_area_2_ScenarioIndex(scenario=0)             c_cost_lb_14_ScenarioIndex(scenario=0)                  1.33333  c_cost_lb_20_ScenarioIndex(scenario=0)                 0.022166
    control_area_2_ScenarioIndex(scenario=0)             c_cost_lb_21_ScenarioIndex(scenario=0)                 0.022166  c_cost_lb_25_ScenarioIndex(scenario=0)                 0.011517
    overflow_area_1_ScenarioIndex(scenario=0)            dynamic_cst_area_1_ScenarioIndex(scenario=0)                  1  overflow_cst_area_1_ScenarioIndex(scenario=0)              -0.6
    overflow_area_2_ScenarioIndex(scenario=0)            dynamic_cst_area_2_ScenarioIndex(scenario=0)                  1  overflow_cst_area_2_ScenarioIndex(scenario=0)              -0.6
    lvl_init_area_1                                      dynamic_cst_area_1_ScenarioIndex(scenario=0)                 -1  low_curve_cst_area_1_ScenarioIndex(scenario=0)              0.3
    lvl_init_area_1                                      sup_curve_cst_area_1_ScenarioIndex(scenario=0)             -0.3  init_lvl_cst_area_1                                           1
    lvl_init_area_1                                      init_lvl_cst_area_1_3                                         1
    lvl_init_area_2                                      dynamic_cst_area_2_ScenarioIndex(scenario=0)                 -1  low_curve_cst_area_2_ScenarioIndex(scenario=0)              0.3
    lvl_init_area_2                                      sup_curve_cst_area_2_ScenarioIndex(scenario=0)             -0.3  init_lvl_cst_area_2                                           1
    lvl_init_area_2                                      init_lvl_cst_area_2_4                                         1
    lvl_next_area_1_ScenarioIndex(scenario=0)            dynamic_cst_area_1_ScenarioIndex(scenario=0)                  1  late_low_curve_cst_area_1_ScenarioIndex(scenario=0)         0.3
    lvl_next_area_1_ScenarioIndex(scenario=0)            late_sup_curve_cst_area_1_ScenarioIndex(scenario=0)        -0.3
    lvl_next_area_2_ScenarioIndex(scenario=0)            dynamic_cst_area_2_ScenarioIndex(scenario=0)                  1  late_low_curve_cst_area_2_ScenarioIndex(scenario=0)         0.3
    lvl_next_area_2_ScenarioIndex(scenario=0)            late_sup_curve_cst_area_2_ScenarioIndex(scenario=0)        -0.3
    control_cost_scen_ScenarioIndex(scenario=0)          c_cost_lb_0_ScenarioIndex(scenario=0)                         1  c_cost_lb_1_ScenarioIndex(scenario=0)                         1
    control_cost_scen_ScenarioIndex(scenario=0)          c_cost_lb_2_ScenarioIndex(scenario=0)                         1  c_cost_lb_3_ScenarioIndex(scenario=0)                         1
    control_cost_scen_ScenarioIndex(scenario=0)          c_cost_lb_4_ScenarioIndex(scenario=0)                         1  c_cost_lb_5_ScenarioIndex(scenario=0)                         1
    control_cost_scen_ScenarioIndex(scenario=0)          c_cost_lb_6_ScenarioIndex(scenario=0)                         1  c_cost_lb_7_ScenarioIndex(scenario=0)                         1
    control_cost_scen_ScenarioIndex(scenario=0)          c_cost_lb_8_ScenarioIndex(scenario=0)                         1  c_cost_lb_9_ScenarioIndex(scenario=0)                         1
    control_cost_scen_ScenarioIndex(scenario=0)          c_cost_lb_10_ScenarioIndex(scenario=0)                        1  c_cost_lb_11_ScenarioIndex(scenario=0)                        1
    control_cost_scen_ScenarioIndex(scenario=0)          c_cost_lb_12_ScenarioIndex(scenario=0)                        1  c_cost_lb_13_ScenarioIndex(scenario=0)                        1
    control_cost_scen_ScenarioIndex(scenario=0)          c_cost_lb_14_ScenarioIndex(scenario=0)                        1  c_cost_lb_15_ScenarioIndex(scenario=0)                        1
    control_cost_scen_ScenarioIndex(scenario=0)          c_cost_lb_16_ScenarioIndex(scenario=0)                        1  c_cost_lb_17_ScenarioIndex(scenario=0)                        1
    control_cost_scen_ScenarioIndex(scenario=0)          c_cost_lb_18_ScenarioIndex(scenario=0)                        1  c_cost_lb_19_ScenarioIndex(scenario=0)                        1
    control_cost_scen_ScenarioIndex(scenario=0)          c_cost_lb_20_ScenarioIndex(scenario=0)                        1  c_cost_lb_21_ScenarioIndex(scenario=0)                        1
    control_cost_scen_ScenarioIndex(scenario=0)          c_cost_lb_22_ScenarioIndex(scenario=0)                        1  c_cost_lb_23_ScenarioIndex(scenario=0)                        1
    control_cost_scen_ScenarioIndex(scenario=0)          c_cost_lb_24_ScenarioIndex(scenario=0)                        1  c_cost_lb_25_ScenarioIndex(scenario=0)                        1
    control_cost_scen_ScenarioIndex(scenario=0)          control_cost_total                                           -1
    control_cost                                         COST                                                          1  control_cost_total                                            1
    curve_penalty_area_1_ScenarioIndex(scenario=0)       low_curve_cst_area_1_ScenarioIndex(scenario=0)                1  sup_curve_cst_area_1_ScenarioIndex(scenario=0)                1
    curve_penalty_area_2_ScenarioIndex(scenario=0)       low_curve_cst_area_2_ScenarioIndex(scenario=0)                1  sup_curve_cst_area_2_ScenarioIndex(scenario=0)                1
    late_curve_penalty_area_1_ScenarioIndex(scenario=0)  late_low_curve_cst_area_1_ScenarioIndex(scenario=0)           1  late_sup_curve_cst_area_1_ScenarioIndex(scenario=0)           1
    late_curve_penalty_area_1_ScenarioIndex(scenario=0)  total_penalty_cost_constraint                                -1
    late_curve_penalty_area_2_ScenarioIndex(scenario=0)  late_low_curve_cst_area_2_ScenarioIndex(scenario=0)           1  late_sup_curve_cst_area_2_ScenarioIndex(scenario=0)           1
    late_curve_penalty_area_2_ScenarioIndex(scenario=0)  total_penalty_cost_constraint                                -1
    overflow_penalty_area_1_ScenarioIndex(scenario=0)    overflow_cst_area_1_ScenarioIndex(scenario=0)                 1  total_penalty_cost_constraint                                -1
    overflow_penalty_area_2_ScenarioIndex(scenario=0)    overflow_cst_area_2_ScenarioIndex(scenario=0)                 1  total_penalty_cost_constraint                                -1
    penalty_cost                                         COST                                                          1  total_penalty_cost_constraint                                 1
    future_cost_scen_ScenarioIndex(scenario=0)           f_cost_lb_0_ScenarioIndex(scenario=0)                         1  future_cost_total                                            -1
    future_cost                                          COST                                                          1  future_cost_total                                             1
    future_cost_scen_ScenarioIndex(scenario=0)_1         f_cost_lb_0_ScenarioIndex(scenario=0)_1                       1  future_cost_total_2                                          -1
    future_cost_2                                        COST                                                          1  future_cost_total_2                                           1
RHS
    RHS                                                  dynamic_cst_area_1_ScenarioIndex(scenario=0)             1.3797  dynamic_cst_area_2_ScenarioIndex(scenario=0)             3.1619
    RHS                                                  c_cost_lb_0_ScenarioIndex(scenario=0)                  -18.8834  c_cost_lb_1_ScenarioIndex(scenario=0)                  -18.8834
    RHS                                                  c_cost_lb_2_ScenarioIndex(scenario=0)                 -0.195916  c_cost_lb_3_ScenarioIndex(scenario=0)                  0.313414
    RHS                                                  c_cost_lb_4_ScenarioIndex(scenario=0)                -0.0881912  c_cost_lb_5_ScenarioIndex(scenario=0)                  -18.8834
    RHS                                                  c_cost_lb_6_ScenarioIndex(scenario=0)                  0.379397  c_cost_lb_7_ScenarioIndex(scenario=0)                  0.412376
    RHS                                                  c_cost_lb_8_ScenarioIndex(scenario=0)                  0.407959  c_cost_lb_9_ScenarioIndex(scenario=0)                  0.119576
    RHS                                                  c_cost_lb_10_ScenarioIndex(scenario=0)                 0.057431  c_cost_lb_11_ScenarioIndex(scenario=0)                0.0574308
    RHS                                                  c_cost_lb_12_ScenarioIndex(scenario=0)                 0.407956  c_cost_lb_13_ScenarioIndex(scenario=0)                 0.379396
    RHS                                                  c_cost_lb_14_ScenarioIndex(scenario=0)                 -18.8834  c_cost_lb_15_ScenarioIndex(scenario=0)                        0
    RHS                                                  c_cost_lb_16_ScenarioIndex(scenario=0)                0.0985738  c_cost_lb_17_ScenarioIndex(scenario=0)                 0.119578
    RHS                                                  c_cost_lb_18_ScenarioIndex(scenario=0)                        0  c_cost_lb_19_ScenarioIndex(scenario=0)                        0
    RHS                                                  c_cost_lb_20_ScenarioIndex(scenario=0)                -0.167108  c_cost_lb_21_ScenarioIndex(scenario=0)               -0.0881907
    RHS                                                  c_cost_lb_22_ScenarioIndex(scenario=0)                        0  c_cost_lb_23_ScenarioIndex(scenario=0)                        0
    RHS                                                  c_cost_lb_24_ScenarioIndex(scenario=0)                        0  c_cost_lb_25_ScenarioIndex(scenario=0)                 0.143673
    RHS                                                  control_cost_total                                            0  low_curve_cst_area_1_ScenarioIndex(scenario=0)          5.26021
    RHS                                                  low_curve_cst_area_2_ScenarioIndex(scenario=0)          11.8962  sup_curve_cst_area_1_ScenarioIndex(scenario=0)         -11.9047
    RHS                                                  sup_curve_cst_area_2_ScenarioIndex(scenario=0)          -26.923  late_low_curve_cst_area_1_ScenarioIndex(scenario=0)     4.79879
    RHS                                                  late_low_curve_cst_area_2_ScenarioIndex(scenario=0)     10.8527  late_sup_curve_cst_area_1_ScenarioIndex(scenario=0)    -11.4433
    RHS                                                  late_sup_curve_cst_area_2_ScenarioIndex(scenario=0)    -25.8795  overflow_cst_area_1_ScenarioIndex(scenario=0)                 0
    RHS                                                  overflow_cst_area_2_ScenarioIndex(scenario=0)                 0  total_penalty_cost_constraint                                 0
    RHS                                                  f_cost_lb_0_ScenarioIndex(scenario=0)                         0  future_cost_total                                             0
    RHS                                                  init_lvl_cst_area_1                                           0  init_lvl_cst_area_2                                     62.8378
    RHS                                                  f_cost_lb_0_ScenarioIndex(scenario=0)_1                       0  future_cost_total_2                                           0
    RHS                                                  init_lvl_cst_area_1_3                                   27.7853  init_lvl_cst_area_2_4                                         0
BOUNDS
 UP BOUND                                                control_area_1_ScenarioIndex(scenario=0)                30.6936
 LO BOUND                                                control_area_2_ScenarioIndex(scenario=0)               -32.2182
 UP BOUND                                                control_area_2_ScenarioIndex(scenario=0)                41.9664
 PL BOUND                                                overflow_area_1_ScenarioIndex(scenario=0)
 PL BOUND                                                overflow_area_2_ScenarioIndex(scenario=0)
 UP BOUND                                                lvl_init_area_1                                         76.9037
 UP BOUND                                                lvl_init_area_2                                         173.921
 UP BOUND                                                lvl_next_area_1_ScenarioIndex(scenario=0)               76.9037
 UP BOUND                                                lvl_next_area_2_ScenarioIndex(scenario=0)               173.921
 PL BOUND                                                control_cost_scen_ScenarioIndex(scenario=0)
 PL BOUND                                                control_cost
 PL BOUND                                                curve_penalty_area_1_ScenarioIndex(scenario=0)
 PL BOUND                                                curve_penalty_area_2_ScenarioIndex(scenario=0)
 PL BOUND                                                late_curve_penalty_area_1_ScenarioIndex(scenario=0)
 PL BOUND                                                late_curve_penalty_area_2_ScenarioIndex(scenario=0)
 PL BOUND                                                overflow_penalty_area_1_ScenarioIndex(scenario=0)
 PL BOUND                                                overflow_penalty_area_2_ScenarioIndex(scenario=0)
 PL BOUND                                                penalty_cost
 PL BOUND                                                future_cost_scen_ScenarioIndex(scenario=0)
 PL BOUND                                                future_cost
 PL BOUND                                                future_cost_scen_ScenarioIndex(scenario=0)_1
 PL BOUND                                                future_cost_2
ENDATA
